DIMACS_lns/graph-1000-952.col
p edge 1000 1843
e 1 777
e 1 636
e 1 222
e 1 641
e 1 330
e 2 277
e 2 893
e 2 947
e 2 402
e 2 147
e 3 541
e 3 646
e 3 973
e 3 429
e 4 782
e 4 494
e 4 732
e 4 585
e 5 823
e 5 399
e 5 972
e 5 687
e 5 832
e 5 882
e 5 227
e 5 978
e 6 887
e 6 632
e 6 420
e 6 689
e 6 857
e 7 682
e 7 969
e 7 512
e 7 700
e 7 980
e 7 973
e 7 366
e 7 587
e 7 875
e 10 898
e 10 466
e 10 952
e 10 424
e 10 993
e 10 218
e 10 542
e 11 877
e 11 295
e 11 369
e 11 388
e 11 673
e 11 575
e 13 613
e 13 140
e 13 808
e 13 48
e 14 82
e 14 874
e 14 191
e 15 304
e 15 573
e 15 439
e 15 974
e 15 139
e 17 18
e 17 379
e 17 52
e 17 458
e 18 472
e 18 169
e 18 694
e 18 963
e 18 960
e 19 519
e 19 441
e 19 384
e 22 827
e 22 426
e 22 180
e 22 713
e 23 426
e 23 127
e 23 963
e 25 466
e 25 144
e 25 84
e 25 379
e 25 733
e 25 790
e 25 894
e 25 277
e 25 700
e 26 569
e 26 326
e 26 548
e 26 272
e 26 841
e 26 958
e 26 424
e 26 137
e 26 849
e 27 371
e 27 631
e 27 392
e 28 108
e 28 565
e 28 146
e 29 495
e 29 408
e 29 147
e 29 969
e 29 249
e 30 324
e 30 879
e 30 456
e 31 120
e 31 989
e 31 215
e 31 769
e 31 862
e 31 933
e 32 749
e 32 445
e 32 375
e 32 173
e 32 597
e 32 311
e 32 846
e 33 109
e 33 608
e 33 918
e 34 829
e 34 656
e 34 736
e 34 648
e 34 289
e 35 205
e 35 851
e 35 492
e 35 556
e 36 518
e 36 618
e 36 591
e 36 714
e 37 91
e 37 205
e 37 793
e 37 842
e 39 898
e 39 55
e 39 528
e 40 719
e 40 883
e 40 977
e 40 894
e 41 230
e 41 323
e 41 517
e 42 973
e 42 763
e 42 659
e 42 784
e 42 512
e 42 694
e 42 582
e 44 661
e 44 321
e 44 496
e 45 149
e 45 277
e 45 786
e 45 658
e 47 806
e 47 983
e 47 73
e 48 581
e 48 149
e 48 909
e 48 864
e 49 907
e 49 68
e 49 514
e 49 901
e 49 786
e 51 625
e 51 822
e 51 210
e 52 719
e 52 847
e 52 450
e 54 300
e 54 540
e 54 207
e 54 605
e 54 119
e 54 795
e 55 428
e 55 818
e 59 644
e 59 246
e 59 693
e 59 874
e 59 225
e 59 981
e 60 71
e 60 402
e 60 776
e 60 658
e 61 376
e 61 798
e 61 229
e 61 310
e 61 424
e 61 965
e 62 583
e 62 432
e 62 816
e 62 298
e 62 71
e 62 456
e 63 847
e 63 588
e 63 278
e 63 417
e 63 871
e 64 78
e 64 898
e 64 695
e 65 753
e 65 545
e 65 313
e 65 870
e 68 463
e 68 722
e 68 800
e 68 580
e 69 492
e 69 433
e 69 204
e 70 223
e 70 872
e 70 793
e 71 888
e 71 561
e 71 927
e 71 793
e 72 240
e 72 962
e 72 816
e 72 927
e 72 981
e 73 309
e 73 693
e 73 564
e 74 195
e 74 676
e 74 641
e 74 94
e 74 690
e 74 805
e 74 337
e 75 368
e 75 358
e 75 414
e 75 842
e 75 901
e 76 428
e 76 828
e 76 254
e 76 933
e 76 90
e 76 357
e 76 236
e 77 899
e 77 730
e 77 956
e 77 357
e 78 951
e 78 548
e 79 393
e 79 248
e 79 969
e 79 382
e 79 140
e 79 819
e 79 236
e 79 753
e 80 820
e 80 574
e 80 685
e 80 86
e 80 846
e 81 266
e 81 785
e 81 958
e 81 358
e 81 678
e 82 576
e 82 552
e 83 226
e 83 773
e 83 430
e 83 711
e 83 636
e 83 951
e 84 809
e 84 683
e 84 718
e 84 450
e 86 266
e 86 164
e 86 554
e 86 900
e 87 362
e 87 970
e 87 354
e 87 921
e 87 805
e 90 408
e 90 680
e 90 626
e 91 180
e 91 339
e 91 717
e 91 409
e 91 810
e 92 846
e 92 497
e 92 906
e 92 850
e 93 534
e 93 243
e 93 197
e 93 879
e 94 967
e 94 881
e 94 703
e 94 843
e 94 113
e 96 668
e 96 250
e 96 576
e 97 713
e 97 552
e 97 265
e 99 298
e 99 625
e 99 248
e 99 507
e 101 894
e 101 266
e 101 862
e 102 920
e 102 412
e 102 703
e 102 556
e 102 352
e 102 276
e 104 392
e 104 346
e 104 864
e 105 479
e 105 200
e 105 787
e 107 998
e 107 841
e 107 340
e 107 300
e 107 885
e 107 480
e 107 144
e 108 355
e 108 829
e 109 190
e 109 607
e 109 483
e 111 200
e 111 176
e 111 784
e 111 340
e 111 620
e 112 372
e 112 481
e 112 715
e 112 338
e 112 853
e 112 310
e 113 646
e 113 406
e 113 698
e 113 551
e 113 405
e 113 847
e 114 469
e 114 865
e 114 467
e 114 894
e 115 757
e 115 137
e 115 303
e 116 614
e 116 206
e 116 777
e 116 631
e 116 350
e 117 846
e 117 542
e 117 570
e 117 292
e 118 273
e 118 834
e 118 520
e 118 270
e 118 622
e 119 851
e 119 483
e 119 734
e 119 661
e 120 240
e 120 231
e 121 951
e 121 923
e 121 929
e 121 744
e 121 981
e 121 668
e 121 185
e 122 564
e 122 424
e 122 168
e 122 469
e 122 251
e 122 672
e 122 313
e 122 486
e 123 932
e 123 552
e 123 427
e 123 862
e 123 140
e 124 194
e 124 207
e 124 356
e 125 150
e 125 744
e 125 950
e 125 168
e 127 350
e 127 527
e 128 414
e 128 515
e 128 218
e 128 601
e 128 571
e 129 259
e 129 832
e 129 765
e 129 257
e 131 426
e 131 319
e 131 448
e 132 375
e 132 891
e 132 409
e 132 199
e 133 967
e 133 258
e 133 581
e 133 656
e 133 414
e 133 734
e 135 910
e 135 682
e 135 607
e 136 302
e 136 160
e 136 690
e 136 362
e 137 542
e 137 152
e 137 372
e 138 190
e 138 180
e 138 455
e 138 655
e 138 931
e 139 184
e 139 240
e 139 270
e 140 598
e 140 366
e 140 956
e 140 313
e 141 558
e 141 756
e 141 487
e 142 915
e 142 772
e 142 950
e 142 840
e 142 275
e 142 222
e 142 658
e 142 465
e 144 649
e 144 146
e 144 509
e 144 983
e 144 334
e 144 324
e 144 202
e 144 843
e 145 613
e 145 470
e 145 367
e 146 658
e 146 153
e 147 182
e 147 834
e 147 175
e 147 432
e 148 908
e 148 194
e 148 540
e 148 870
e 148 512
e 149 805
e 149 789
e 149 742
e 149 771
e 149 975
e 149 945
e 150 904
e 150 706
e 150 564
e 150 781
e 150 541
e 150 574
e 152 420
e 152 805
e 153 369
e 153 792
e 153 723
e 154 829
e 154 575
e 154 763
e 154 463
e 154 296
e 155 415
e 155 653
e 155 771
e 155 649
e 155 952
e 155 265
e 157 591
e 157 295
e 157 957
e 157 355
e 158 868
e 158 372
e 158 176
e 158 982
e 158 360
e 158 555
e 158 207
e 160 973
e 160 865
e 160 743
e 164 262
e 164 226
e 164 644
e 168 744
e 168 822
e 168 889
e 168 593
e 168 648
e 169 303
e 169 191
e 169 358
e 169 619
e 170 678
e 170 676
e 170 916
e 170 363
e 170 204
e 172 686
e 172 350
e 172 262
e 172 173
e 172 987
e 172 528
e 173 428
e 173 574
e 175 388
e 175 827
e 175 285
e 176 177
e 177 519
e 177 437
e 177 781
e 177 972
e 177 717
e 178 625
e 178 227
e 178 303
e 178 827
e 178 298
e 181 224
e 181 788
e 181 298
e 181 310
e 182 928
e 182 930
e 182 958
e 182 832
e 183 187
e 183 609
e 183 660
e 183 354
e 183 941
e 183 488
e 184 800
e 184 620
e 184 346
e 185 232
e 185 611
e 185 844
e 185 679
e 185 747
e 185 429
e 187 781
e 187 402
e 187 915
e 187 970
e 187 616
e 187 323
e 187 205
e 189 702
e 189 515
e 189 852
e 189 972
e 189 207
e 189 256
e 190 608
e 190 968
e 190 681
e 191 546
e 191 500
e 191 201
e 194 405
e 194 665
e 194 375
e 194 451
e 194 496
e 195 961
e 195 452
e 197 244
e 197 574
e 197 266
e 199 233
e 199 225
e 200 601
e 200 685
e 201 987
e 201 691
e 201 914
e 201 389
e 202 333
e 202 824
e 202 412
e 202 727
e 204 259
e 204 337
e 205 633
e 205 649
e 205 764
e 205 634
e 205 454
e 206 482
e 206 518
e 207 295
e 207 376
e 207 474
e 208 986
e 208 801
e 208 730
e 208 808
e 210 950
e 210 254
e 210 782
e 212 927
e 212 713
e 212 383
e 212 303
e 213 326
e 213 707
e 213 675
e 214 819
e 214 712
e 214 589
e 215 763
e 215 446
e 215 679
e 215 972
e 215 980
e 215 468
e 218 852
e 218 801
e 218 752
e 218 907
e 222 770
e 222 882
e 222 805
e 222 841
e 222 734
e 222 599
e 222 867
e 223 656
e 223 230
e 224 565
e 224 258
e 224 906
e 224 458
e 225 698
e 225 790
e 226 693
e 226 586
e 227 929
e 228 362
e 228 698
e 228 236
e 228 350
e 229 857
e 229 850
e 230 480
e 230 233
e 230 485
e 231 599
e 231 740
e 231 868
e 232 581
e 232 788
e 232 487
e 233 733
e 233 937
e 233 638
e 233 350
e 233 569
e 233 445
e 234 505
e 234 447
e 234 377
e 234 928
e 236 944
e 236 619
e 236 555
e 236 704
e 239 285
e 239 610
e 239 574
e 240 621
e 240 964
e 243 311
e 243 694
e 243 635
e 244 654
e 244 436
e 244 259
e 244 851
e 244 566
e 244 535
e 244 388
e 244 875
e 246 272
e 246 429
e 246 668
e 248 616
e 248 390
e 248 877
e 249 545
e 249 750
e 249 494
e 249 309
e 249 893
e 250 875
e 250 585
e 250 681
e 250 348
e 250 669
e 251 706
e 251 961
e 251 277
e 251 900
e 251 487
e 253 356
e 253 434
e 253 931
e 253 888
e 254 721
e 254 672
e 254 826
e 254 458
e 255 470
e 255 467
e 255 957
e 255 356
e 256 836
e 256 597
e 256 617
e 257 426
e 257 983
e 258 747
e 259 819
e 259 971
e 259 825
e 259 905
e 260 857
e 260 683
e 260 513
e 261 900
e 261 431
e 261 444
e 262 790
e 262 868
e 262 557
e 263 361
e 263 315
e 263 657
e 263 686
e 263 351
e 264 529
e 264 497
e 264 541
e 265 513
e 265 921
e 266 581
e 266 952
e 266 407
e 266 573
e 266 607
e 267 680
e 267 974
e 267 809
e 269 487
e 269 455
e 269 906
e 269 422
e 269 896
e 269 708
e 269 282
e 270 885
e 272 607
e 272 794
e 272 600
e 272 279
e 272 655
e 273 556
e 273 482
e 273 276
e 273 992
e 275 407
e 275 779
e 275 718
e 276 731
e 276 558
e 276 841
e 277 689
e 277 604
e 277 809
e 278 704
e 278 619
e 278 376
e 278 363
e 279 777
e 279 512
e 279 696
e 280 352
e 280 376
e 280 291
e 280 427
e 280 482
e 281 342
e 281 950
e 281 347
e 281 968
e 281 309
e 281 743
e 282 931
e 282 548
e 284 609
e 284 805
e 284 680
e 284 886
e 285 361
e 285 366
e 285 938
e 286 991
e 286 527
e 286 788
e 286 632
e 287 460
e 287 824
e 287 669
e 287 765
e 289 334
e 289 614
e 289 612
e 289 300
e 289 708
e 289 350
e 289 452
e 290 553
e 290 708
e 290 635
e 290 884
e 290 502
e 291 915
e 291 960
e 292 324
e 292 397
e 292 945
e 292 523
e 292 689
e 294 853
e 294 957
e 294 984
e 294 950
e 294 702
e 294 855
e 295 932
e 295 446
e 295 763
e 296 731
e 296 915
e 297 526
e 297 429
e 297 574
e 298 945
e 299 820
e 299 326
e 299 906
e 300 773
e 301 652
e 301 896
e 301 444
e 302 949
e 302 642
e 302 811
e 303 446
e 303 698
e 304 904
e 304 471
e 304 425
e 307 531
e 307 566
e 307 580
e 307 816
e 309 569
e 309 816
e 309 605
e 310 619
e 311 734
e 311 778
e 311 822
e 311 582
e 312 694
e 312 816
e 312 947
e 312 409
e 312 703
e 313 825
e 313 917
e 313 858
e 313 980
e 313 434
e 315 717
e 315 711
e 317 518
e 317 609
e 317 842
e 319 836
e 319 594
e 319 603
e 321 813
e 321 885
e 323 918
e 323 635
e 323 703
e 323 779
e 324 794
e 324 537
e 325 531
e 325 405
e 325 479
e 325 900
e 326 454
e 326 895
e 329 728
e 329 795
e 329 663
e 329 458
e 329 745
e 330 901
e 330 842
e 332 448
e 332 645
e 332 799
e 333 942
e 333 948
e 333 910
e 333 618
e 333 598
e 334 706
e 334 888
e 334 882
e 335 925
e 335 665
e 335 753
e 335 436
e 337 591
e 337 782
e 338 789
e 338 905
e 338 339
e 338 821
e 338 566
e 339 610
e 339 710
e 339 552
e 340 389
e 342 941
e 342 890
e 342 820
e 343 785
e 343 855
e 343 610
e 346 694
e 347 349
e 347 573
e 347 812
e 348 727
e 348 592
e 349 847
e 349 617
e 349 989
e 350 573
e 350 618
e 351 946
e 351 833
e 351 545
e 352 854
e 352 368
e 352 971
e 352 757
e 352 630
e 354 794
e 354 923
e 354 867
e 355 448
e 355 778
e 355 732
e 355 433
e 355 566
e 355 488
e 355 910
e 357 588
e 357 655
e 357 715
e 358 727
e 358 491
e 358 715
e 358 658
e 358 385
e 358 566
e 358 361
e 358 846
e 360 704
e 360 606
e 361 455
e 361 797
e 361 488
e 361 384
e 361 430
e 361 433
e 362 695
e 362 937
e 362 569
e 362 397
e 362 974
e 362 679
e 363 944
e 363 636
e 363 587
e 364 885
e 364 621
e 364 458
e 364 744
e 367 696
e 367 866
e 368 885
e 368 938
e 368 676
e 368 588
e 369 470
e 369 370
e 369 723
e 370 531
e 370 817
e 370 604
e 370 742
e 371 792
e 371 521
e 371 696
e 371 683
e 371 806
e 371 973
e 371 855
e 371 765
e 372 681
e 372 515
e 372 932
e 373 886
e 373 472
e 373 764
e 373 711
e 375 427
e 375 905
e 376 736
e 376 485
e 376 954
e 376 756
e 377 436
e 377 441
e 378 773
e 378 466
e 378 616
e 379 631
e 379 444
e 379 927
e 379 392
e 380 956
e 380 842
e 380 834
e 382 712
e 382 957
e 383 568
e 383 970
e 383 603
e 384 458
e 384 463
e 384 909
e 385 429
e 385 978
e 388 691
e 388 720
e 388 816
e 388 567
e 389 976
e 389 541
e 389 794
e 390 725
e 390 648
e 390 886
e 390 810
e 392 805
e 393 582
e 393 436
e 393 963
e 397 915
e 397 906
e 397 622
e 397 950
e 397 468
e 397 675
e 399 540
e 399 793
e 399 497
e 400 689
e 400 956
e 400 496
e 400 952
e 402 595
e 402 740
e 403 734
e 403 889
e 403 517
e 403 881
e 405 909
e 406 513
e 406 734
e 406 701
e 407 636
e 407 512
e 408 896
e 408 842
e 408 792
e 408 749
e 409 717
e 409 832
e 412 526
e 412 490
e 412 731
e 414 619
e 414 765
e 414 613
e 414 618
e 414 729
e 414 789
e 415 551
e 415 654
e 415 453
e 416 731
e 416 923
e 416 420
e 416 765
e 417 784
e 417 757
e 417 852
e 417 974
e 417 450
e 420 538
e 420 951
e 422 553
e 422 583
e 422 527
e 422 771
e 423 587
e 423 561
e 423 486
e 423 877
e 423 725
e 423 434
e 424 717
e 425 913
e 425 817
e 425 429
e 425 756
e 426 977
e 427 991
e 427 651
e 427 888
e 427 665
e 427 429
e 427 737
e 428 476
e 428 823
e 429 452
e 429 965
e 429 546
e 430 813
e 431 509
e 431 576
e 431 879
e 432 917
e 432 658
e 432 964
e 432 474
e 433 642
e 433 747
e 434 540
e 434 945
e 434 786
e 434 906
e 434 598
e 436 793
e 437 935
e 437 523
e 439 526
e 439 682
e 439 612
e 439 838
e 441 783
e 444 993
e 444 890
e 444 969
e 444 512
e 445 816
e 445 533
e 446 986
e 447 752
e 447 896
e 447 998
e 448 941
e 449 921
e 449 971
e 449 833
e 450 657
e 451 718
e 451 786
e 452 846
e 452 620
e 452 607
e 452 526
e 452 582
e 452 669
e 453 690
e 453 865
e 453 580
e 454 883
e 454 918
e 454 800
e 454 694
e 455 954
e 456 937
e 458 471
e 458 669
e 460 740
e 460 698
e 460 805
e 460 769
e 462 687
e 462 973
e 462 471
e 462 971
e 463 494
e 465 851
e 465 519
e 465 887
e 466 644
e 466 868
e 467 795
e 468 805
e 469 840
e 469 742
e 469 598
e 470 797
e 470 554
e 472 788
e 472 756
e 472 634
e 474 942
e 474 711
e 474 574
e 474 762
e 476 514
e 476 683
e 479 923
e 480 655
e 480 713
e 481 565
e 481 642
e 482 568
e 482 937
e 483 486
e 483 618
e 483 564
e 484 692
e 484 951
e 484 930
e 485 678
e 485 641
e 486 954
e 486 812
e 487 889
e 488 740
e 488 813
e 488 940
e 489 818
e 489 546
e 489 548
e 490 670
e 490 947
e 491 551
e 491 763
e 492 665
e 492 924
e 492 899
e 494 791
e 494 819
e 495 940
e 495 872
e 496 744
e 496 621
e 497 975
e 497 777
e 497 595
e 497 770
e 500 821
e 500 542
e 501 580
e 501 694
e 501 608
e 501 935
e 502 692
e 502 963
e 502 712
e 502 949
e 505 573
e 505 916
e 506 783
e 506 946
e 506 778
e 507 756
e 507 728
e 509 927
e 510 722
e 510 600
e 510 609
e 513 651
e 513 713
e 514 593
e 515 561
e 515 875
e 515 707
e 517 679
e 517 648
e 518 826
e 518 821
e 518 668
e 518 590
e 519 599
e 519 895
e 519 661
e 520 927
e 520 653
e 520 829
e 521 817
e 521 569
e 523 846
e 526 809
e 526 979
e 526 947
e 527 992
e 527 824
e 528 618
e 529 775
e 529 967
e 529 583
e 529 798
e 531 907
e 531 928
e 533 534
e 533 849
e 534 908
e 534 665
e 535 920
e 535 724
e 537 656
e 537 891
e 538 932
e 538 890
e 538 557
e 541 975
e 541 552
e 542 982
e 544 711
e 544 948
e 544 843
e 545 809
e 546 954
e 546 716
e 551 909
e 551 570
e 552 714
e 553 698
e 553 620
e 554 877
e 555 832
e 556 825
e 556 593
e 556 853
e 557 820
e 557 813
e 557 916
e 558 574
e 558 843
e 558 679
e 558 969
e 561 600
e 564 630
e 564 976
e 565 960
e 565 784
e 565 719
e 566 634
e 566 963
e 567 867
e 567 873
e 567 976
e 568 928
e 568 712
e 569 707
e 569 958
e 569 904
e 570 590
e 570 621
e 570 681
e 571 657
e 571 847
e 571 915
e 573 893
e 574 989
e 574 708
e 575 970
e 576 945
e 576 866
e 581 942
e 581 603
e 582 691
e 582 762
e 582 886
e 582 965
e 583 743
e 583 921
e 583 960
e 584 729
e 584 964
e 584 678
e 584 952
e 584 954
e 585 599
e 586 904
e 586 723
e 588 592
e 589 707
e 589 605
e 590 630
e 590 748
e 591 828
e 591 974
e 591 868
e 592 728
e 593 884
e 593 660
e 594 608
e 594 602
e 594 753
e 595 638
e 597 619
e 597 844
e 597 600
e 599 642
e 600 729
e 600 981
e 601 638
e 601 984
e 601 682
e 602 968
e 602 782
e 603 965
e 603 629
e 603 610
e 603 973
e 604 930
e 604 605
e 605 847
e 605 932
e 606 663
e 606 668
e 606 865
e 607 838
e 607 783
e 607 708
e 608 798
e 609 958
e 609 853
e 610 793
e 611 678
e 611 791
e 611 973
e 611 657
e 612 772
e 612 622
e 612 653
e 613 811
e 614 772
e 614 742
e 614 770
e 614 716
e 616 743
e 617 799
e 617 727
e 617 969
e 619 747
e 619 793
e 619 890
e 619 690
e 621 701
e 621 775
e 621 786
e 622 911
e 622 645
e 625 827
e 626 771
e 626 928
e 626 778
e 629 797
e 629 940
e 631 663
e 632 685
e 632 813
e 632 801
e 632 644
e 633 958
e 633 991
e 635 876
e 635 710
e 638 801
e 642 808
e 642 670
e 642 964
e 644 886
e 644 913
e 644 797
e 644 894
e 645 706
e 645 820
e 646 737
e 646 969
e 646 961
e 648 910
e 648 921
e 648 655
e 649 724
e 649 840
e 651 866
e 651 890
e 652 853
e 652 805
e 653 789
e 653 655
e 653 920
e 654 698
e 654 895
e 655 703
e 655 967
e 656 784
e 657 791
e 657 668
e 657 721
e 658 906
e 659 721
e 659 679
e 660 819
e 660 742
e 663 805
e 665 700
e 666 973
e 666 692
e 666 717
e 668 718
e 669 979
e 670 872
e 670 883
e 670 882
e 672 749
e 672 853
e 673 975
e 673 812
e 675 747
e 676 932
e 678 924
e 678 940
e 679 962
e 679 992
e 682 887
e 682 710
e 682 694
e 683 957
e 685 817
e 685 898
e 686 980
e 686 822
e 687 987
e 687 756
e 689 838
e 691 722
e 691 949
e 692 907
e 692 694
e 692 729
e 693 827
e 694 884
e 694 817
e 695 908
e 696 791
e 696 852
e 700 769
e 701 874
e 701 954
e 701 938
e 702 826
e 702 771
e 703 862
e 703 876
e 703 849
e 704 914
e 706 949
e 706 823
e 708 757
e 708 817
e 710 816
e 711 720
e 711 839
e 712 729
e 713 846
e 713 870
e 714 839
e 714 836
e 714 871
e 715 718
e 716 801
e 718 961
e 720 879
e 721 854
e 722 764
e 724 748
e 725 925
e 725 733
e 725 728
e 730 740
e 731 900
e 731 858
e 732 937
e 732 910
e 732 914
e 733 938
e 734 749
e 734 858
e 736 924
e 737 911
e 737 818
e 742 951
e 743 890
e 745 957
e 745 923
e 747 805
e 747 819
e 748 836
e 748 750
e 749 853
e 749 781
e 750 753
e 750 795
e 752 949
e 752 875
e 757 857
e 757 862
e 762 775
e 763 904
e 764 884
e 765 864
e 770 874
e 771 820
e 771 900
e 771 786
e 772 828
e 772 867
e 772 797
e 775 849
e 775 921
e 775 925
e 776 993
e 776 974
e 776 784
e 777 917
e 778 963
e 779 793
e 782 817
e 785 941
e 786 822
e 786 948
e 787 791
e 787 876
e 787 998
e 789 893
e 789 883
e 789 809
e 792 839
e 798 982
e 799 986
e 800 928
e 800 870
e 801 864
e 801 855
e 801 849
e 806 992
e 808 908
e 808 918
e 809 824
e 809 854
e 810 889
e 811 829
e 812 840
e 813 981
e 821 947
e 822 911
e 829 940
e 833 844
e 834 938
e 836 909
e 836 905
e 836 884
e 836 989
e 836 873
e 838 991
e 841 969
e 846 918
e 850 957
e 851 944
e 853 969
e 853 885
e 858 914
e 865 958
e 870 964
e 871 917
e 873 895
e 877 894
e 879 964
e 881 901
e 881 965
e 883 885
e 884 898
e 884 895
e 888 984
e 890 935
e 891 979
e 893 984
e 896 973
e 899 904
e 900 920
e 905 938
e 905 969
e 907 962
e 913 998
e 915 925
e 915 991
e 916 982
e 917 920
e 917 981
e 920 937
e 923 927
e 924 973
e 929 957
e 933 968
e 946 993
e 951 969
e 958 978
e 958 976
e 972 982
e 977 989
e 977 991
